pRobustCbss/GLKH-1.1/TMP/mtspf.pid6716.atsp
NAME : mtspf.pid6716.gtsp
TYPE : ATSP
DIMENSION : 43
EDGE_WEIGHT_TYPE : EXPLICIT
EDGE_WEIGHT_FORMAT : FULL_MATRIX
EDGE_WEIGHT_SECTION
999999 5368709 5468708 5368717 5368718 5368717 5368716 5368737 5368738 5368737 5368736 5368734 5368735 5368734 5368733 5368739 5368740 5368739 5368738 5368718 5368717 5368716 5368717 5368718 5368719 5368720 5368719 5368733 5368734 5368733 5368732 5368730 5368731 5368732 5368731 5368726 5368727 5368726 5368725 5368734 5368735 5368734 5368733 
5468708 999999 5368709 5368739 5368738 5368737 5368738 5368739 5368738 5368737 5368738 5368728 5368729 5368728 5368727 5368733 5368734 5368733 5368732 5368734 5368733 5368732 5368733 5368726 5368725 5368724 5368725 5368737 5368736 5368735 5368736 5368712 5368713 5368712 5368711 5368748 5368747 5368746 5368747 5368728 5368729 5368728 5368727 
5368709 5468708 999999 5368733 5368732 5368733 5368734 5368729 5368728 5368727 5368728 5368714 5368713 5368714 5368715 5368715 5368716 5368717 5368716 5368740 5368739 5368740 5368741 5368730 5368729 5368730 5368731 5368727 5368726 5368725 5368726 5368728 5368727 5368728 5368729 5368738 5368737 5368736 5368737 5368720 5368719 5368718 5368719 
5368709 5368709 5368709 999999 0 10737418 10737418 5368736 5368737 5368736 5368735 5368733 5368734 5368733 5368732 5368738 5368739 5368738 5368737 5368719 5368718 5368717 5368718 5368723 5368724 5368725 5368724 5368732 5368733 5368732 5368731 5368735 5368736 5368737 5368736 5368721 5368722 5368721 5368720 5368733 5368734 5368733 5368732 
5368709 5368709 5368709 10737418 999999 0 10737418 5368735 5368736 5368737 5368736 5368732 5368733 5368734 5368733 5368737 5368738 5368739 5368738 5368718 5368717 5368718 5368719 5368724 5368725 5368726 5368725 5368731 5368732 5368733 5368732 5368736 5368737 5368738 5368737 5368720 5368721 5368720 5368719 5368732 5368733 5368734 5368733 
5368709 5368709 5368709 10737418 10737418 999999 0 5368734 5368735 5368736 5368735 5368731 5368732 5368733 5368732 5368736 5368737 5368738 5368737 5368719 5368718 5368719 5368720 5368725 5368724 5368725 5368726 5368730 5368731 5368732 5368731 5368737 5368736 5368737 5368738 5368721 5368720 5368719 5368720 5368731 5368732 5368733 5368732 
5368709 5368709 5368709 0 10737418 10737418 999999 5368735 5368736 5368735 5368734 5368732 5368733 5368732 5368731 5368737 5368738 5368737 5368736 5368720 5368719 5368718 5368719 5368724 5368723 5368724 5368725 5368731 5368732 5368731 5368730 5368736 5368735 5368736 5368737 5368722 5368721 5368720 5368721 5368732 5368733 5368732 5368731 
5368709 5368709 5368709 5368736 5368735 5368734 5368735 999999 0 10737418 10737418 5368729 5368730 5368731 5368730 5368728 5368729 5368730 5368729 5368743 5368742 5368741 5368742 5368733 5368732 5368731 5368732 5368716 5368715 5368714 5368715 5368735 5368736 5368737 5368736 5368735 5368734 5368733 5368734 5368719 5368720 5368721 5368720 
5368709 5368709 5368709 5368735 5368734 5368735 5368736 10737418 999999 0 10737418 5368730 5368731 5368732 5368731 5368729 5368730 5368731 5368730 5368742 5368741 5368742 5368743 5368732 5368731 5368732 5368733 5368715 5368714 5368715 5368716 5368736 5368737 5368738 5368737 5368734 5368733 5368734 5368735 5368720 5368721 5368722 5368721 
5368709 5368709 5368709 5368736 5368735 5368736 5368737 10737418 10737418 999999 0 5368731 5368730 5368731 5368732 5368730 5368729 5368730 5368731 5368743 5368742 5368743 5368744 5368733 5368732 5368733 5368734 5368716 5368715 5368716 5368717 5368737 5368736 5368737 5368738 5368735 5368734 5368735 5368736 5368721 5368720 5368721 5368722 
5368709 5368709 5368709 5368737 5368736 5368735 5368736 0 10737418 10737418 999999 5368730 5368729 5368730 5368731 5368729 5368728 5368729 5368730 5368744 5368743 5368742 5368743 5368734 5368733 5368732 5368733 5368717 5368716 5368715 5368716 5368736 5368735 5368736 5368737 5368736 5368735 5368734 5368735 5368720 5368719 5368720 5368721 
5368709 5368709 5368709 5368733 5368732 5368731 5368732 5368731 5368732 5368731 5368730 999999 0 10737418 10737418 5368717 5368718 5368717 5368716 5368740 5368739 5368738 5368739 5368730 5368729 5368728 5368729 5368729 5368730 5368729 5368728 5368728 5368727 5368726 5368727 5368740 5368741 5368740 5368739 5368722 5368723 5368722 5368721 
5368709 5368709 5368709 5368732 5368731 5368732 5368733 5368730 5368731 5368730 5368729 10737418 999999 0 10737418 5368716 5368717 5368718 5368717 5368739 5368738 5368739 5368740 5368729 5368728 5368729 5368730 5368728 5368729 5368728 5368727 5368727 5368726 5368727 5368728 5368739 5368740 5368739 5368738 5368721 5368722 5368721 5368720 
5368709 5368709 5368709 5368733 5368732 5368733 5368734 5368731 5368730 5368729 5368730 10737418 10737418 999999 0 5368715 5368716 5368717 5368716 5368740 5368739 5368740 5368741 5368730 5368729 5368730 5368731 5368729 5368728 5368727 5368728 5368728 5368727 5368728 5368729 5368740 5368739 5368738 5368739 5368722 5368721 5368720 5368721 
5368709 5368709 5368709 5368734 5368733 5368732 5368733 5368732 5368731 5368730 5368731 0 10737418 10737418 999999 5368716 5368717 5368716 5368715 5368741 5368740 5368739 5368740 5368731 5368730 5368729 5368730 5368730 5368729 5368728 5368729 5368729 5368728 5368727 5368728 5368741 5368740 5368739 5368740 5368723 5368722 5368721 5368722 
5368709 5368709 5368709 5368738 5368737 5368736 5368737 5368730 5368731 5368730 5368729 5368717 5368716 5368715 5368716 999999 0 10737418 10737418 5368745 5368744 5368743 5368744 5368735 5368734 5368733 5368734 5368728 5368729 5368728 5368727 5368733 5368732 5368731 5368732 5368739 5368740 5368739 5368738 5368721 5368722 5368721 5368720 
5368709 5368709 5368709 5368737 5368736 5368737 5368738 5368729 5368730 5368729 5368728 5368716 5368715 5368716 5368717 10737418 999999 0 10737418 5368744 5368743 5368744 5368745 5368734 5368733 5368734 5368735 5368727 5368728 5368727 5368726 5368732 5368731 5368732 5368733 5368738 5368739 5368738 5368737 5368720 5368721 5368720 5368719 
5368709 5368709 5368709 5368738 5368737 5368738 5368739 5368730 5368729 5368728 5368729 5368717 5368716 5368717 5368718 10737418 10737418 999999 0 5368745 5368744 5368745 5368746 5368735 5368734 5368735 5368736 5368728 5368727 5368726 5368727 5368733 5368732 5368733 5368734 5368739 5368738 5368737 5368738 5368721 5368720 5368719 5368720 
5368709 5368709 5368709 5368739 5368738 5368737 5368738 5368731 5368730 5368729 5368730 5368718 5368717 5368716 5368717 0 10737418 10737418 999999 5368746 5368745 5368744 5368745 5368736 5368735 5368734 5368735 5368729 5368728 5368727 5368728 5368734 5368733 5368732 5368733 5368740 5368739 5368738 5368739 5368722 5368721 5368720 5368721 
5368709 5368709 5368709 5368719 5368720 5368719 5368718 5368743 5368744 5368743 5368742 5368740 5368741 5368740 5368739 5368745 5368746 5368745 5368744 999999 0 10737418 10737418 5368722 5368723 5368722 5368721 5368739 5368740 5368739 5368738 5368730 5368731 5368732 5368731 5368726 5368727 5368726 5368725 5368740 5368741 5368740 5368739 
5368709 5368709 5368709 5368718 5368719 5368720 5368719 5368742 5368743 5368744 5368743 5368739 5368740 5368741 5368740 5368744 5368745 5368746 5368745 10737418 999999 0 10737418 5368721 5368722 5368723 5368722 5368738 5368739 5368740 5368739 5368731 5368732 5368733 5368732 5368725 5368726 5368725 5368724 5368739 5368740 5368741 5368740 
5368709 5368709 5368709 5368717 5368718 5368719 5368718 5368741 5368742 5368743 5368742 5368738 5368739 5368740 5368739 5368743 5368744 5368745 5368744 10737418 10737418 999999 0 5368720 5368721 5368722 5368721 5368737 5368738 5368739 5368738 5368732 5368731 5368732 5368733 5368726 5368725 5368724 5368725 5368738 5368739 5368740 5368739 
5368709 5368709 5368709 5368718 5368719 5368718 5368717 5368742 5368743 5368742 5368741 5368739 5368740 5368739 5368738 5368744 5368745 5368744 5368743 0 10737418 10737418 999999 5368721 5368722 5368721 5368720 5368738 5368739 5368738 5368737 5368731 5368730 5368731 5368732 5368727 5368726 5368725 5368726 5368739 5368740 5368739 5368738 
5368709 5368709 5368709 5368725 5368726 5368725 5368724 5368733 5368734 5368733 5368732 5368730 5368731 5368730 5368729 5368735 5368736 5368735 5368734 5368722 5368721 5368720 5368721 999999 0 10737418 10737418 5368729 5368730 5368729 5368728 5368722 5368723 5368724 5368723 5368734 5368735 5368734 5368733 5368730 5368731 5368730 5368729 
5368709 5368709 5368709 5368724 5368725 5368724 5368723 5368732 5368733 5368734 5368733 5368729 5368730 5368731 5368730 5368734 5368735 5368736 5368735 5368721 5368720 5368721 5368722 10737418 999999 0 10737418 5368728 5368729 5368730 5368729 5368723 5368724 5368725 5368724 5368733 5368734 5368733 5368732 5368729 5368730 5368731 5368730 
5368709 5368709 5368709 5368725 5368724 5368723 5368724 5368731 5368732 5368733 5368732 5368728 5368729 5368730 5368729 5368733 5368734 5368735 5368734 5368722 5368721 5368722 5368723 10737418 10737418 999999 0 5368727 5368728 5368729 5368728 5368724 5368723 5368724 5368725 5368734 5368733 5368732 5368733 5368728 5368729 5368730 5368729 
5368709 5368709 5368709 5368726 5368725 5368724 5368725 5368732 5368733 5368732 5368731 5368729 5368730 5368729 5368728 5368734 5368735 5368734 5368733 5368723 5368722 5368721 5368722 0 10737418 10737418 999999 5368728 5368729 5368728 5368727 5368723 5368722 5368723 5368724 5368735 5368734 5368733 5368734 5368729 5368730 5368729 5368728 
5368709 5368709 5368709 5368732 5368731 5368730 5368731 5368716 5368717 5368716 5368715 5368727 5368728 5368729 5368728 5368726 5368727 5368728 5368727 5368739 5368738 5368737 5368738 5368729 5368728 5368727 5368728 999999 0 10737418 10737418 5368733 5368734 5368735 5368734 5368731 5368730 5368729 5368730 5368717 5368718 5368719 5368718 
5368709 5368709 5368709 5368731 5368730 5368731 5368732 5368715 5368716 5368717 5368716 5368728 5368729 5368730 5368729 5368727 5368728 5368729 5368728 5368738 5368737 5368738 5368739 5368728 5368727 5368728 5368729 10737418 999999 0 10737418 5368734 5368735 5368736 5368735 5368730 5368729 5368730 5368731 5368718 5368719 5368720 5368719 
5368709 5368709 5368709 5368732 5368731 5368732 5368733 5368714 5368715 5368716 5368715 5368729 5368728 5368729 5368730 5368728 5368727 5368728 5368729 5368739 5368738 5368739 5368740 5368729 5368728 5368729 5368730 10737418 10737418 999999 0 5368735 5368734 5368735 5368736 5368731 5368730 5368731 5368732 5368719 5368718 5368719 5368720 
5368709 5368709 5368709 5368733 5368732 5368731 5368732 5368715 5368716 5368715 5368714 5368728 5368727 5368728 5368729 5368727 5368726 5368727 5368728 5368740 5368739 5368738 5368739 5368730 5368729 5368728 5368729 0 10737418 10737418 999999 5368734 5368733 5368734 5368735 5368732 5368731 5368730 5368731 5368718 5368717 5368718 5368719 
5368709 5368709 5368709 5368737 5368738 5368737 5368736 5368737 5368738 5368737 5368736 5368728 5368729 5368728 5368727 5368733 5368734 5368733 5368732 5368732 5368733 5368732 5368731 5368724 5368725 5368724 5368723 5368735 5368736 5368735 5368734 999999 0 10737418 10737418 5368746 5368747 5368746 5368745 5368728 5368729 5368728 5368727 
5368709 5368709 5368709 5368736 5368737 5368736 5368735 5368736 5368737 5368736 5368735 5368727 5368728 5368729 5368728 5368732 5368733 5368734 5368733 5368731 5368732 5368731 5368730 5368723 5368724 5368723 5368722 5368734 5368735 5368734 5368733 10737418 999999 0 10737418 5368745 5368746 5368745 5368744 5368727 5368728 5368727 5368726 
5368709 5368709 5368709 5368737 5368736 5368735 5368736 5368737 5368736 5368735 5368736 5368726 5368727 5368728 5368727 5368731 5368732 5368733 5368732 5368732 5368731 5368730 5368731 5368724 5368723 5368722 5368723 5368735 5368734 5368733 5368734 10737418 10737418 999999 0 5368746 5368745 5368744 5368745 5368726 5368727 5368726 5368725 
5368709 5368709 5368709 5368738 5368737 5368736 5368737 5368738 5368737 5368736 5368737 5368727 5368728 5368727 5368726 5368732 5368733 5368732 5368731 5368733 5368732 5368731 5368732 5368725 5368724 5368723 5368724 5368736 5368735 5368734 5368735 0 10737418 10737418 999999 5368747 5368746 5368745 5368746 5368727 5368728 5368727 5368726 
5368709 5368709 5368709 5368719 5368720 5368721 5368720 5368735 5368736 5368735 5368734 5368738 5368739 5368740 5368739 5368737 5368738 5368739 5368738 5368724 5368725 5368726 5368725 5368732 5368733 5368734 5368733 5368731 5368732 5368731 5368730 5368744 5368745 5368746 5368745 999999 0 10737418 10737418 5368732 5368733 5368732 5368731 
5368709 5368709 5368709 5368720 5368721 5368722 5368721 5368734 5368735 5368736 5368735 5368739 5368740 5368741 5368740 5368738 5368739 5368740 5368739 5368725 5368726 5368727 5368726 5368733 5368734 5368735 5368734 5368730 5368731 5368732 5368731 5368745 5368746 5368747 5368746 10737418 999999 0 10737418 5368731 5368732 5368733 5368732 
5368709 5368709 5368709 5368721 5368720 5368721 5368722 5368733 5368734 5368735 5368734 5368740 5368739 5368740 5368741 5368739 5368738 5368739 5368740 5368726 5368725 5368726 5368727 5368734 5368733 5368734 5368735 5368729 5368730 5368731 5368730 5368746 5368745 5368746 5368747 10737418 10737418 999999 0 5368730 5368731 5368732 5368731 
5368709 5368709 5368709 5368720 5368719 5368720 5368721 5368734 5368735 5368734 5368733 5368739 5368738 5368739 5368740 5368738 5368737 5368738 5368739 5368725 5368724 5368725 5368726 5368733 5368732 5368733 5368734 5368730 5368731 5368730 5368729 5368745 5368744 5368745 5368746 0 10737418 10737418 999999 5368731 5368732 5368731 5368730 
5368709 5368709 5368709 5368733 5368732 5368731 5368732 5368721 5368722 5368721 5368720 5368720 5368721 5368722 5368721 5368719 5368720 5368721 5368720 5368740 5368739 5368738 5368739 5368730 5368729 5368728 5368729 5368719 5368720 5368719 5368718 5368726 5368725 5368726 5368727 5368732 5368731 5368730 5368731 999999 0 10737418 10737418 
5368709 5368709 5368709 5368732 5368731 5368732 5368733 5368720 5368721 5368720 5368719 5368721 5368722 5368723 5368722 5368720 5368721 5368722 5368721 5368739 5368738 5368739 5368740 5368729 5368728 5368729 5368730 5368718 5368719 5368718 5368717 5368727 5368726 5368727 5368728 5368731 5368730 5368731 5368732 10737418 999999 0 10737418 
5368709 5368709 5368709 5368733 5368732 5368733 5368734 5368721 5368720 5368719 5368720 5368722 5368721 5368722 5368723 5368721 5368720 5368721 5368722 5368740 5368739 5368740 5368741 5368730 5368729 5368730 5368731 5368719 5368718 5368717 5368718 5368728 5368727 5368728 5368729 5368732 5368731 5368732 5368733 10737418 10737418 999999 0 
5368709 5368709 5368709 5368734 5368733 5368732 5368733 5368722 5368721 5368720 5368721 5368721 5368720 5368721 5368722 5368720 5368719 5368720 5368721 5368741 5368740 5368739 5368740 5368731 5368730 5368729 5368730 5368720 5368719 5368718 5368719 5368727 5368726 5368727 5368728 5368733 5368732 5368731 5368732 0 10737418 10737418 999999 
EOF
