pRobustCbss/GLKH-1.1/TMP/mtspf.pid6716.tour
NAME : mtspf.pid6716.gtsp.69793293.tour
COMMENT : Length = 69793293
COMMENT : Found by LKH [Keld Helsgaun] Thu Jan  9 12:10:48 2025
TYPE : TOUR
DIMENSION : 43
TOUR_SECTION
1
21
22
23
20
7
4
5
6
38
39
36
37
2
35
32
33
34
26
27
24
25
3
12
13
14
15
19
16
17
18
42
43
40
41
31
28
29
30
8
9
10
11
-1
EOF
